p tdp 82 81
20 74
52 50
1 24
76 35
37 24
22 13
17 82
62 23
49 23
2 60
19 15
37 68
65 38
55 51
29 58
19 67
56 39
64 43
5 81
21 75
80 9
57 67
68 6
12 25
35 58
44 3
50 55
30 11
73 27
68 4
63 59
6 46
14 61
70 42
58 78
9 10
49 33
55 47
38 72
49 13
54 41
75 45
34 70
28 67
56 26
26 7
21 71
33 14
40 65
63 18
27 59
20 5
25 27
69 16
30 16
17 48
53 67
34 60
64 31
44 10
74 8
74 66
36 69
77 57
6 32
82 69
12 33
9 65
80 79
57 1
5 21
32 58
58 22
55 40
44 64
9 30
56 41
71 38
43 41
42 10
31 1
